TYPE : Vertex Cover
DIMENSION: 22
EDGE_DATA_SECTION:
0 6
1 4
1 17
2 6
3 6
3 17
5 9
5 15
5 16
7 17
10 13
10 21
13 15
14 15
14 17
15 19
16 18
17 18
18 21
-1
VERTEX_DEGREE:
1.0 2.0 1.0 2.0 1.0 3.0 3.0 1.0 0.0 1.0 2.0 0.0 0.0 2.0 2.0 4.0 2.0 5.0 3.0 1.0 0.0 2.0
VERTEX_COVER:
1 5 6 10 15 17 18
EOF
